m = 2;
n = 20;
l = [10, 10, ];
s = [1, 1, 1, 1, 1, 1, 1, 1, 1, 1, 1, 1, 1, 1, 1, 1, 1, 1, 1, 1, ];
x = [1, 4, 2, 1, 0, 0, 2, 2, 3, 3, 0, 3, 1, 3, 4, 1, 3, 4, 1, 2, 2, ];
y = [3, 1, 3, 1, 3, 2, 4, 1, 3, 2, 1, 0, 2, 4, 3, 4, 1, 2, 0, 0, 2, ];
% lower_bound = 21;
length = [10, 10, ];
n = 15;
s = [2, 1, 1, 1, 1, 3, 1, 1, 1, 1, 1, 3, 1, 1, 1]
x = [1.5, 0, 2, 2, 3, 0.25, 3, 1, 3, 4, 1, 3.25, 4, 1, 2, 2]
y = [3.0, 3, 4, 1, 3, 1.25, 0, 2, 4, 3, 4, 1.25, 2, 0, 0, 2]
X = [[2, 1]; [0]; [2]; [2]; [3]; [0, 0, 1]; [3]; [1]; [3]; [4]; [1]; [3, 3, 4]; [4]; [1]; [2]; [2]; ]
Y = [[3, 3]; [3]; [4]; [1]; [3]; [1, 2, 1]; [0]; [2]; [4]; [3]; [4]; [1, 2, 1]; [2]; [0]; [0]; [2]; ]

